p cnf 175 3411
1 2 3 4 5 0
6 7 8 9 10 0
11 12 13 14 15 0
16 17 18 19 20 0
21 22 23 24 25 0
26 27 28 29 30 0
31 32 33 34 35 0
36 37 38 39 40 0
41 42 43 44 45 0
46 47 48 49 50 0
51 52 53 54 55 0
56 57 58 59 60 0
61 62 63 64 65 0
66 67 68 69 70 0
71 72 73 74 75 0
76 77 78 79 80 0
81 82 83 84 85 0
86 87 88 89 90 0
91 92 93 94 95 0
96 97 98 99 100 0
101 102 103 104 105 0
106 107 108 109 110 0
111 112 113 114 115 0
116 117 118 119 120 0
121 122 123 124 125 0
126 127 128 129 130 0
131 132 133 134 135 0
136 137 138 139 140 0
141 142 143 144 145 0
146 147 148 149 150 0
151 152 153 154 155 0
156 157 158 159 160 0
161 162 163 164 165 0
166 167 168 169 170 0
171 172 173 174 175 0
-1 -2 0
-1 -3 0
-1 -4 0
-1 -5 0
-2 -3 0
-2 -4 0
-2 -5 0
-3 -4 0
-3 -5 0
-4 -5 0
-6 -7 0
-6 -8 0
-6 -9 0
-6 -10 0
-7 -8 0
-7 -9 0
-7 -10 0
-8 -9 0
-8 -10 0
-9 -10 0
-11 -12 0
-11 -13 0
-11 -14 0
-11 -15 0
-12 -13 0
-12 -14 0
-12 -15 0
-13 -14 0
-13 -15 0
-14 -15 0
-16 -17 0
-16 -18 0
-16 -19 0
-16 -20 0
-17 -18 0
-17 -19 0
-17 -20 0
-18 -19 0
-18 -20 0
-19 -20 0
-21 -22 0
-21 -23 0
-21 -24 0
-21 -25 0
-22 -23 0
-22 -24 0
-22 -25 0
-23 -24 0
-23 -25 0
-24 -25 0
-26 -27 0
-26 -28 0
-26 -29 0
-26 -30 0
-27 -28 0
-27 -29 0
-27 -30 0
-28 -29 0
-28 -30 0
-29 -30 0
-31 -32 0
-31 -33 0
-31 -34 0
-31 -35 0
-32 -33 0
-32 -34 0
-32 -35 0
-33 -34 0
-33 -35 0
-34 -35 0
-36 -37 0
-36 -38 0
-36 -39 0
-36 -40 0
-37 -38 0
-37 -39 0
-37 -40 0
-38 -39 0
-38 -40 0
-39 -40 0
-41 -42 0
-41 -43 0
-41 -44 0
-41 -45 0
-42 -43 0
-42 -44 0
-42 -45 0
-43 -44 0
-43 -45 0
-44 -45 0
-46 -47 0
-46 -48 0
-46 -49 0
-46 -50 0
-47 -48 0
-47 -49 0
-47 -50 0
-48 -49 0
-48 -50 0
-49 -50 0
-51 -52 0
-51 -53 0
-51 -54 0
-51 -55 0
-52 -53 0
-52 -54 0
-52 -55 0
-53 -54 0
-53 -55 0
-54 -55 0
-56 -57 0
-56 -58 0
-56 -59 0
-56 -60 0
-57 -58 0
-57 -59 0
-57 -60 0
-58 -59 0
-58 -60 0
-59 -60 0
-61 -62 0
-61 -63 0
-61 -64 0
-61 -65 0
-62 -63 0
-62 -64 0
-62 -65 0
-63 -64 0
-63 -65 0
-64 -65 0
-66 -67 0
-66 -68 0
-66 -69 0
-66 -70 0
-67 -68 0
-67 -69 0
-67 -70 0
-68 -69 0
-68 -70 0
-69 -70 0
-71 -72 0
-71 -73 0
-71 -74 0
-71 -75 0
-72 -73 0
-72 -74 0
-72 -75 0
-73 -74 0
-73 -75 0
-74 -75 0
-76 -77 0
-76 -78 0
-76 -79 0
-76 -80 0
-77 -78 0
-77 -79 0
-77 -80 0
-78 -79 0
-78 -80 0
-79 -80 0
-81 -82 0
-81 -83 0
-81 -84 0
-81 -85 0
-82 -83 0
-82 -84 0
-82 -85 0
-83 -84 0
-83 -85 0
-84 -85 0
-86 -87 0
-86 -88 0
-86 -89 0
-86 -90 0
-87 -88 0
-87 -89 0
-87 -90 0
-88 -89 0
-88 -90 0
-89 -90 0
-91 -92 0
-91 -93 0
-91 -94 0
-91 -95 0
-92 -93 0
-92 -94 0
-92 -95 0
-93 -94 0
-93 -95 0
-94 -95 0
-96 -97 0
-96 -98 0
-96 -99 0
-96 -100 0
-97 -98 0
-97 -99 0
-97 -100 0
-98 -99 0
-98 -100 0
-99 -100 0
-101 -102 0
-101 -103 0
-101 -104 0
-101 -105 0
-102 -103 0
-102 -104 0
-102 -105 0
-103 -104 0
-103 -105 0
-104 -105 0
-106 -107 0
-106 -108 0
-106 -109 0
-106 -110 0
-107 -108 0
-107 -109 0
-107 -110 0
-108 -109 0
-108 -110 0
-109 -110 0
-111 -112 0
-111 -113 0
-111 -114 0
-111 -115 0
-112 -113 0
-112 -114 0
-112 -115 0
-113 -114 0
-113 -115 0
-114 -115 0
-116 -117 0
-116 -118 0
-116 -119 0
-116 -120 0
-117 -118 0
-117 -119 0
-117 -120 0
-118 -119 0
-118 -120 0
-119 -120 0
-121 -122 0
-121 -123 0
-121 -124 0
-121 -125 0
-122 -123 0
-122 -124 0
-122 -125 0
-123 -124 0
-123 -125 0
-124 -125 0
-126 -127 0
-126 -128 0
-126 -129 0
-126 -130 0
-127 -128 0
-127 -129 0
-127 -130 0
-128 -129 0
-128 -130 0
-129 -130 0
-131 -132 0
-131 -133 0
-131 -134 0
-131 -135 0
-132 -133 0
-132 -134 0
-132 -135 0
-133 -134 0
-133 -135 0
-134 -135 0
-136 -137 0
-136 -138 0
-136 -139 0
-136 -140 0
-137 -138 0
-137 -139 0
-137 -140 0
-138 -139 0
-138 -140 0
-139 -140 0
-141 -142 0
-141 -143 0
-141 -144 0
-141 -145 0
-142 -143 0
-142 -144 0
-142 -145 0
-143 -144 0
-143 -145 0
-144 -145 0
-146 -147 0
-146 -148 0
-146 -149 0
-146 -150 0
-147 -148 0
-147 -149 0
-147 -150 0
-148 -149 0
-148 -150 0
-149 -150 0
-151 -152 0
-151 -153 0
-151 -154 0
-151 -155 0
-152 -153 0
-152 -154 0
-152 -155 0
-153 -154 0
-153 -155 0
-154 -155 0
-156 -157 0
-156 -158 0
-156 -159 0
-156 -160 0
-157 -158 0
-157 -159 0
-157 -160 0
-158 -159 0
-158 -160 0
-159 -160 0
-161 -162 0
-161 -163 0
-161 -164 0
-161 -165 0
-162 -163 0
-162 -164 0
-162 -165 0
-163 -164 0
-163 -165 0
-164 -165 0
-166 -167 0
-166 -168 0
-166 -169 0
-166 -170 0
-167 -168 0
-167 -169 0
-167 -170 0
-168 -169 0
-168 -170 0
-169 -170 0
-171 -172 0
-171 -173 0
-171 -174 0
-171 -175 0
-172 -173 0
-172 -174 0
-172 -175 0
-173 -174 0
-173 -175 0
-174 -175 0
-1 -24 0
-3 -24 0
-5 -22 0
-4 -23 0
-4 -25 0
-3 -23 0
-2 -24 0
-5 -25 0
-2 -22 0
-2 -21 0
-2 -25 0
-3 -25 0
-1 -25 0
-1 -23 0
-3 -22 0
-4 -21 0
-1 -22 0
-2 -34 0
-2 -33 0
-1 -35 0
-5 -34 0
-2 -32 0
-4 -33 0
-4 -31 0
-4 -34 0
-1 -31 0
-1 -34 0
-3 -34 0
-5 -35 0
-4 -35 0
-1 -33 0
-5 -32 0
-3 -33 0
-5 -31 0
-2 -52 0
-3 -53 0
-3 -51 0
-5 -51 0
-2 -55 0
-1 -52 0
-2 -51 0
-4 -54 0
-4 -55 0
-3 -52 0
-5 -54 0
-2 -54 0
-4 -52 0
-5 -55 0
-3 -54 0
-1 -53 0
-2 -53 0
-1 -82 0
-4 -82 0
-3 -84 0
-5 -81 0
-4 -81 0
-2 -81 0
-2 -83 0
-1 -83 0
-4 -84 0
-3 -83 0
-3 -85 0
-2 -85 0
-3 -82 0
-5 -82 0
-5 -84 0
-3 -81 0
-4 -83 0
-3 -88 0
-3 -86 0
-4 -88 0
-2 -90 0
-2 -89 0
-2 -87 0
-1 -87 0
-1 -88 0
-5 -89 0
-4 -89 0
-1 -89 0
-4 -90 0
-1 -86 0
-4 -86 0
-5 -86 0
-5 -87 0
-3 -89 0
-5 -109 0
-5 -107 0
-1 -108 0
-1 -107 0
-3 -108 0
-3 -107 0
-4 -108 0
-1 -110 0
-2 -109 0
-2 -108 0
-4 -109 0
-4 -106 0
-3 -106 0
-2 -110 0
-1 -106 0
-3 -109 0
-4 -110 0
-4 -132 0
-5 -132 0
-3 -134 0
-3 -131 0
-3 -135 0
-2 -135 0
-5 -131 0
-1 -135 0
-2 -133 0
-4 -131 0
-3 -133 0
-4 -135 0
-5 -133 0
-1 -132 0
-1 -134 0
-5 -134 0
-4 -134 0
-5 -136 0
-1 -139 0
-2 -137 0
-5 -140 0
-1 -136 0
-3 -138 0
-3 -136 0
-3 -140 0
-5 -138 0
-4 -138 0
-2 -138 0
-3 -139 0
-1 -140 0
-4 -139 0
-1 -138 0
-5 -137 0
-2 -140 0
-2 -146 0
-3 -146 0
-2 -150 0
-2 -147 0
-4 -147 0
-2 -148 0
-1 -148 0
-5 -149 0
-5 -146 0
-1 -147 0
-4 -150 0
-5 -148 0
-2 -149 0
-3 -148 0
-4 -146 0
-3 -150 0
-1 -149 0
-1 -151 0
-4 -154 0
-3 -155 0
-4 -152 0
-3 -153 0
-4 -153 0
-3 -152 0
-2 -154 0
-1 -155 0
-1 -152 0
-3 -151 0
-5 -152 0
-2 -155 0
-3 -154 0
-1 -154 0
-5 -154 0
-2 -151 0
-7 -26 0
-8 -26 0
-8 -28 0
-6 -26 0
-8 -27 0
-7 -30 0
-10 -28 0
-8 -29 0
-9 -30 0
-10 -26 0
-10 -29 0
-9 -28 0
-6 -28 0
-9 -26 0
-7 -29 0
-6 -29 0
-6 -27 0
-6 -31 0
-6 -34 0
-9 -31 0
-9 -35 0
-8 -31 0
-7 -34 0
-6 -32 0
-10 -31 0
-7 -33 0
-10 -32 0
-10 -33 0
-8 -34 0
-8 -33 0
-9 -33 0
-8 -35 0
-8 -32 0
-7 -31 0
-9 -55 0
-10 -53 0
-6 -55 0
-8 -55 0
-7 -52 0
-6 -52 0
-9 -51 0
-10 -52 0
-9 -54 0
-9 -52 0
-6 -53 0
-8 -51 0
-8 -54 0
-8 -52 0
-7 -55 0
-7 -51 0
-7 -53 0
-10 -85 0
-8 -85 0
-6 -84 0
-7 -81 0
-8 -82 0
-6 -82 0
-8 -83 0
-6 -83 0
-7 -84 0
-9 -83 0
-9 -85 0
-10 -84 0
-7 -82 0
-6 -81 0
-8 -84 0
-6 -85 0
-10 -81 0
-10 -93 0
-8 -95 0
-9 -94 0
-8 -94 0
-6 -95 0
-9 -91 0
-6 -93 0
-6 -92 0
-10 -91 0
-9 -93 0
-7 -94 0
-7 -91 0
-8 -91 0
-7 -92 0
-9 -92 0
-6 -91 0
-8 -92 0
-6 -113 0
-8 -111 0
-9 -115 0
-6 -115 0
-8 -114 0
-9 -112 0
-8 -115 0
-9 -111 0
-10 -112 0
-9 -114 0
-8 -112 0
-10 -114 0
-9 -113 0
-6 -111 0
-7 -115 0
-7 -114 0
-7 -112 0
-9 -159 0
-8 -156 0
-6 -158 0
-9 -160 0
-7 -157 0
-10 -160 0
-10 -156 0
-9 -158 0
-6 -159 0
-10 -159 0
-8 -160 0
-9 -156 0
-7 -160 0
-7 -156 0
-6 -157 0
-8 -157 0
-7 -158 0
-13 -22 0
-14 -23 0
-12 -23 0
-11 -25 0
-13 -21 0
-12 -24 0
-12 -21 0
-13 -24 0
-12 -25 0
-14 -24 0
-15 -24 0
-14 -22 0
-11 -23 0
-13 -25 0
-14 -25 0
-14 -21 0
-11 -22 0
-13 -44 0
-14 -45 0
-12 -45 0
-13 -45 0
-11 -45 0
-15 -43 0
-11 -41 0
-14 -44 0
-13 -42 0
-12 -41 0
-14 -41 0
-15 -42 0
-14 -43 0
-14 -42 0
-13 -43 0
-15 -45 0
-12 -42 0
-15 -62 0
-12 -65 0
-12 -64 0
-12 -61 0
-13 -62 0
-14 -62 0
-11 -64 0
-14 -64 0
-14 -63 0
-15 -65 0
-11 -65 0
-12 -63 0
-15 -64 0
-15 -61 0
-11 -63 0
-12 -62 0
-14 -65 0
-14 -71 0
-11 -73 0
-12 -71 0
-14 -74 0
-11 -75 0
-12 -74 0
-15 -72 0
-15 -73 0
-14 -72 0
-13 -74 0
-13 -73 0
-11 -72 0
-12 -75 0
-11 -71 0
-13 -75 0
-15 -71 0
-14 -73 0
-13 -76 0
-13 -80 0
-13 -77 0
-11 -76 0
-15 -79 0
-11 -77 0
-13 -79 0
-15 -80 0
-14 -79 0
-12 -78 0
-12 -76 0
-14 -76 0
-11 -80 0
-12 -80 0
-15 -78 0
-14 -80 0
-13 -78 0
-14 -136 0
-11 -140 0
-14 -138 0
-15 -136 0
-11 -137 0
-12 -139 0
-13 -136 0
-15 -137 0
-14 -140 0
-15 -140 0
-13 -140 0
-15 -139 0
-14 -137 0
-12 -137 0
-15 -138 0
-12 -136 0
-12 -140 0
-12 -145 0
-13 -143 0
-11 -144 0
-13 -145 0
-15 -142 0
-13 -144 0
-12 -141 0
-15 -141 0
-12 -144 0
-11 -145 0
-15 -144 0
-14 -142 0
-14 -141 0
-11 -142 0
-14 -144 0
-13 -141 0
-11 -143 0
-11 -154 0
-11 -153 0
-15 -152 0
-13 -153 0
-15 -155 0
-11 -151 0
-14 -155 0
-15 -154 0
-12 -155 0
-13 -154 0
-14 -154 0
-12 -153 0
-13 -152 0
-15 -151 0
-11 -155 0
-13 -151 0
-12 -152 0
-15 -157 0
-11 -159 0
-15 -156 0
-13 -159 0
-15 -158 0
-11 -158 0
-12 -158 0
-13 -156 0
-15 -160 0
-12 -159 0
-13 -157 0
-11 -157 0
-12 -160 0
-13 -160 0
-14 -160 0
-14 -157 0
-14 -159 0
-18 -85 0
-17 -85 0
-19 -82 0
-17 -83 0
-20 -83 0
-16 -83 0
-20 -81 0
-17 -82 0
-20 -82 0
-17 -84 0
-17 -81 0
-16 -84 0
-18 -83 0
-20 -84 0
-20 -85 0
-16 -81 0
-16 -85 0
-20 -88 0
-18 -88 0
-20 -87 0
-16 -89 0
-16 -87 0
-18 -90 0
-18 -89 0
-20 -90 0
-19 -86 0
-17 -88 0
-16 -88 0
-19 -90 0
-16 -86 0
-18 -87 0
-19 -87 0
-17 -90 0
-17 -87 0
-19 -99 0
-19 -100 0
-16 -98 0
-19 -96 0
-17 -100 0
-17 -98 0
-17 -96 0
-16 -96 0
-17 -97 0
-20 -98 0
-16 -100 0
-20 -96 0
-19 -98 0
-16 -97 0
-18 -99 0
-20 -100 0
-18 -97 0
-20 -148 0
-19 -147 0
-20 -150 0
-18 -146 0
-20 -147 0
-17 -147 0
-16 -147 0
-18 -149 0
-18 -148 0
-16 -146 0
-19 -150 0
-17 -146 0
-17 -149 0
-19 -148 0
-17 -150 0
-16 -150 0
-18 -150 0
-24 -33 0
-25 -33 0
-22 -31 0
-25 -34 0
-25 -35 0
-23 -35 0
-25 -32 0
-23 -33 0
-22 -33 0
-25 -31 0
-23 -34 0
-22 -34 0
-21 -31 0
-24 -34 0
-22 -35 0
-24 -31 0
-21 -33 0
-22 -60 0
-24 -58 0
-21 -57 0
-22 -57 0
-25 -57 0
-21 -59 0
-23 -58 0
-21 -56 0
-22 -58 0
-23 -57 0
-24 -57 0
-22 -59 0
-22 -56 0
-23 -60 0
-25 -59 0
-24 -60 0
-21 -60 0
-24 -82 0
-21 -85 0
-21 -82 0
-22 -82 0
-24 -84 0
-24 -85 0
-22 -81 0
-25 -82 0
-24 -81 0
-22 -85 0
-24 -83 0
-22 -83 0
-25 -81 0
-21 -83 0
-23 -81 0
-21 -84 0
-23 -84 0
-21 -86 0
-23 -87 0
-22 -90 0
-23 -86 0
-24 -86 0
-23 -89 0
-24 -87 0
-25 -88 0
-22 -89 0
-23 -90 0
-24 -89 0
-21 -90 0
-23 -88 0
-24 -88 0
-22 -86 0
-22 -88 0
-21 -88 0
-25 -103 0
-24 -102 0
-24 -105 0
-25 -105 0
-22 -105 0
-22 -103 0
-23 -105 0
-21 -103 0
-24 -103 0
-24 -101 0
-25 -102 0
-23 -101 0
-23 -104 0
-25 -104 0
-22 -104 0
-25 -101 0
-22 -102 0
-25 -125 0
-24 -124 0
-24 -122 0
-21 -122 0
-21 -121 0
-25 -122 0
-24 -125 0
-25 -123 0
-21 -123 0
-23 -122 0
-25 -124 0
-22 -123 0
-22 -122 0
-24 -121 0
-25 -121 0
-22 -125 0
-23 -125 0
-23 -133 0
-21 -131 0
-22 -131 0
-25 -134 0
-25 -133 0
-24 -134 0
-23 -135 0
-22 -133 0
-21 -134 0
-22 -135 0
-24 -132 0
-21 -133 0
-23 -131 0
-23 -132 0
-22 -134 0
-24 -131 0
-24 -135 0
-22 -138 0
-23 -136 0
-23 -137 0
-24 -139 0
-22 -140 0
-25 -139 0
-22 -139 0
-21 -138 0
-24 -136 0
-23 -139 0
-23 -138 0
-24 -137 0
-21 -137 0
-22 -136 0
-21 -139 0
-25 -140 0
-21 -136 0
-21 -148 0
-23 -149 0
-23 -148 0
-25 -147 0
-22 -149 0
-25 -146 0
-24 -147 0
-22 -150 0
-22 -147 0
-22 -146 0
-21 -147 0
-21 -146 0
-24 -148 0
-24 -146 0
-25 -148 0
-22 -148 0
-24 -149 0
-28 -52 0
-27 -52 0
-28 -55 0
-27 -51 0
-30 -55 0
-27 -53 0
-28 -54 0
-30 -51 0
-26 -55 0
-26 -53 0
-29 -53 0
-29 -52 0
-29 -51 0
-28 -51 0
-30 -52 0
-29 -55 0
-29 -54 0
-26 -59 0
-27 -58 0
-30 -58 0
-30 -57 0
-26 -60 0
-29 -60 0
-26 -57 0
-26 -58 0
-26 -56 0
-30 -56 0
-27 -57 0
-28 -57 0
-30 -59 0
-27 -56 0
-28 -58 0
-28 -60 0
-27 -60 0
-30 -63 0
-29 -65 0
-27 -62 0
-27 -63 0
-27 -61 0
-28 -65 0
-26 -62 0
-29 -62 0
-30 -64 0
-26 -64 0
-26 -63 0
-29 -64 0
-28 -61 0
-29 -63 0
-26 -65 0
-30 -61 0
-28 -64 0
-27 -78 0
-26 -80 0
-30 -77 0
-27 -80 0
-30 -79 0
-26 -79 0
-28 -76 0
-29 -79 0
-28 -80 0
-26 -78 0
-27 -76 0
-28 -77 0
-29 -76 0
-30 -76 0
-28 -78 0
-26 -77 0
-28 -79 0
-26 -83 0
-28 -81 0
-30 -85 0
-26 -81 0
-30 -83 0
-27 -84 0
-28 -82 0
-29 -84 0
-29 -82 0
-29 -83 0
-27 -83 0
-26 -84 0
-29 -81 0
-28 -83 0
-28 -84 0
-27 -85 0
-30 -82 0
-30 -88 0
-26 -88 0
-27 -87 0
-27 -86 0
-28 -87 0
-30 -87 0
-27 -89 0
-26 -86 0
-29 -90 0
-29 -86 0
-28 -89 0
-30 -89 0
-29 -89 0
-28 -86 0
-30 -90 0
-26 -87 0
-29 -88 0
-30 -91 0
-26 -92 0
-28 -93 0
-26 -93 0
-26 -95 0
-29 -93 0
-29 -91 0
-29 -94 0
-30 -94 0
-26 -91 0
-29 -95 0
-28 -91 0
-29 -92 0
-27 -95 0
-28 -92 0
-27 -91 0
-30 -93 0
-28 -105 0
-28 -104 0
-28 -102 0
-26 -105 0
-27 -104 0
-27 -102 0
-30 -105 0
-29 -105 0
-29 -101 0
-30 -102 0
-29 -104 0
-28 -101 0
-27 -105 0
-30 -103 0
-26 -101 0
-26 -102 0
-26 -104 0
-26 -166 0
-26 -167 0
-28 -170 0
-27 -166 0
-27 -169 0
-29 -167 0
-26 -170 0
-30 -167 0
-29 -168 0
-28 -167 0
-29 -169 0
-30 -169 0
-30 -170 0
-27 -167 0
-30 -168 0
-30 -166 0
-26 -169 0
-33 -40 0
-34 -36 0
-32 -39 0
-34 -40 0
-35 -40 0
-34 -37 0
-33 -37 0
-33 -39 0
-35 -38 0
-35 -37 0
-32 -38 0
-32 -37 0
-33 -36 0
-31 -37 0
-34 -39 0
-31 -36 0
-31 -40 0
-33 -44 0
-32 -44 0
-34 -41 0
-33 -42 0
-34 -43 0
-32 -45 0
-33 -41 0
-32 -42 0
-33 -43 0
-32 -41 0
-31 -45 0
-31 -41 0
-34 -44 0
-31 -44 0
-35 -41 0
-35 -42 0
-34 -45 0
-34 -48 0
-34 -47 0
-32 -50 0
-32 -49 0
-34 -46 0
-31 -49 0
-33 -46 0
-35 -46 0
-32 -48 0
-33 -50 0
-33 -48 0
-35 -48 0
-31 -48 0
-31 -46 0
-35 -49 0
-33 -47 0
-34 -49 0
-34 -53 0
-35 -52 0
-33 -54 0
-32 -52 0
-33 -53 0
-34 -52 0
-32 -51 0
-32 -55 0
-32 -54 0
-35 -53 0
-33 -52 0
-34 -54 0
-34 -51 0
-32 -53 0
-35 -51 0
-35 -55 0
-33 -51 0
-31 -65 0
-32 -63 0
-33 -61 0
-33 -63 0
-32 -62 0
-32 -61 0
-33 -62 0
-34 -63 0
-35 -64 0
-34 -62 0
-31 -62 0
-34 -65 0
-35 -63 0
-31 -61 0
-35 -61 0
-33 -65 0
-34 -64 0
-35 -71 0
-34 -71 0
-31 -74 0
-32 -73 0
-31 -72 0
-31 -71 0
-33 -74 0
-34 -73 0
-34 -75 0
-33 -72 0
-31 -73 0
-35 -75 0
-32 -72 0
-32 -74 0
-34 -72 0
-31 -75 0
-35 -72 0
-33 -88 0
-31 -89 0
-34 -88 0
-31 -90 0
-35 -88 0
-35 -89 0
-35 -90 0
-34 -89 0
-34 -87 0
-35 -86 0
-33 -90 0
-32 -88 0
-35 -87 0
-31 -86 0
-32 -86 0
-32 -89 0
-34 -86 0
-31 -111 0
-34 -115 0
-35 -113 0
-33 -112 0
-32 -113 0
-35 -111 0
-34 -114 0
-33 -113 0
-31 -113 0
-34 -111 0
-32 -115 0
-34 -112 0
-33 -111 0
-32 -111 0
-35 -114 0
-34 -113 0
-33 -115 0
-33 -133 0
-34 -131 0
-35 -135 0
-34 -135 0
-31 -131 0
-31 -132 0
-32 -131 0
-33 -132 0
-35 -132 0
-31 -135 0
-31 -134 0
-34 -132 0
-31 -133 0
-35 -131 0
-33 -135 0
-34 -133 0
-32 -133 0
-35 -138 0
-34 -137 0
-32 -139 0
-35 -139 0
-31 -136 0
-33 -140 0
-31 -138 0
-34 -139 0
-34 -140 0
-35 -137 0
-35 -140 0
-32 -140 0
-32 -136 0
-33 -138 0
-31 -137 0
-34 -138 0
-33 -139 0
-31 -145 0
-31 -142 0
-31 -144 0
-31 -141 0
-34 -141 0
-32 -144 0
-33 -142 0
-34 -145 0
-35 -144 0
-33 -144 0
-32 -142 0
-34 -144 0
-33 -141 0
-32 -145 0
-32 -143 0
-33 -143 0
-32 -141 0
-33 -158 0
-31 -158 0
-33 -156 0
-33 -157 0
-35 -158 0
-32 -160 0
-32 -156 0
-35 -159 0
-31 -157 0
-32 -158 0
-32 -157 0
-33 -160 0
-35 -160 0
-31 -160 0
-35 -156 0
-34 -157 0
-31 -156 0
-36 -46 0
-37 -46 0
-36 -50 0
-38 -47 0
-38 -46 0
-40 -47 0
-37 -49 0
-39 -50 0
-36 -48 0
-37 -50 0
-40 -49 0
-38 -50 0
-39 -46 0
-39 -48 0
-40 -46 0
-38 -49 0
-37 -47 0
-36 -63 0
-39 -63 0
-39 -62 0
-38 -61 0
-36 -61 0
-37 -64 0
-36 -62 0
-37 -62 0
-37 -61 0
-40 -61 0
-39 -61 0
-38 -64 0
-36 -65 0
-39 -65 0
-37 -65 0
-40 -64 0
-36 -64 0
-39 -73 0
-40 -73 0
-38 -73 0
-38 -71 0
-39 -71 0
-36 -73 0
-38 -74 0
-37 -71 0
-40 -74 0
-39 -72 0
-37 -72 0
-39 -74 0
-36 -74 0
-39 -75 0
-36 -75 0
-37 -75 0
-38 -75 0
-37 -77 0
-39 -79 0
-38 -78 0
-37 -78 0
-36 -76 0
-37 -76 0
-38 -80 0
-39 -76 0
-39 -78 0
-40 -77 0
-39 -77 0
-40 -80 0
-36 -79 0
-36 -77 0
-37 -80 0
-38 -76 0
-40 -79 0
-39 -83 0
-37 -81 0
-38 -84 0
-36 -85 0
-37 -82 0
-36 -83 0
-36 -82 0
-40 -85 0
-38 -81 0
-36 -84 0
-36 -81 0
-38 -83 0
-40 -83 0
-39 -81 0
-40 -82 0
-40 -81 0
-39 -84 0
-36 -88 0
-38 -88 0
-38 -89 0
-37 -87 0
-37 -90 0
-36 -87 0
-36 -90 0
-40 -88 0
-37 -88 0
-39 -90 0
-39 -89 0
-40 -86 0
-39 -88 0
-39 -87 0
-40 -87 0
-37 -89 0
-40 -90 0
-40 -98 0
-36 -99 0
-39 -97 0
-36 -98 0
-36 -97 0
-37 -100 0
-37 -96 0
-40 -96 0
-37 -97 0
-36 -96 0
-38 -97 0
-38 -99 0
-38 -96 0
-40 -99 0
-37 -99 0
-39 -98 0
-36 -100 0
-36 -113 0
-38 -114 0
-36 -115 0
-38 -113 0
-40 -114 0
-39 -111 0
-37 -114 0
-39 -112 0
-40 -113 0
-38 -112 0
-39 -113 0
-40 -115 0
-38 -115 0
-37 -115 0
-40 -112 0
-39 -115 0
-37 -113 0
-36 -125 0
-40 -125 0
-40 -123 0
-40 -124 0
-39 -124 0
-37 -123 0
-37 -125 0
-38 -123 0
-39 -121 0
-38 -125 0
-36 -124 0
-39 -123 0
-36 -122 0
-37 -121 0
-38 -124 0
-36 -123 0
-37 -122 0
-40 -127 0
-37 -126 0
-38 -126 0
-39 -126 0
-36 -128 0
-39 -130 0
-39 -129 0
-38 -128 0
-36 -129 0
-40 -128 0
-36 -127 0
-40 -130 0
-40 -126 0
-37 -128 0
-38 -129 0
-37 -129 0
-39 -128 0
-38 -152 0
-40 -152 0
-36 -151 0
-39 -154 0
-37 -152 0
-40 -153 0
-37 -153 0
-39 -152 0
-38 -151 0
-36 -152 0
-38 -155 0
-39 -153 0
-37 -151 0
-38 -153 0
-40 -154 0
-40 -151 0
-36 -153 0
-37 -173 0
-39 -175 0
-37 -172 0
-39 -173 0
-36 -172 0
-40 -172 0
-38 -171 0
-38 -172 0
-36 -175 0
-39 -174 0
-38 -174 0
-36 -171 0
-39 -172 0
-37 -174 0
-40 -173 0
-39 -171 0
-38 -173 0
-45 -51 0
-42 -55 0
-44 -54 0
-43 -54 0
-45 -52 0
-41 -53 0
-44 -53 0
-41 -54 0
-45 -55 0
-43 -55 0
-43 -52 0
-43 -53 0
-41 -55 0
-41 -51 0
-45 -54 0
-42 -51 0
-45 -53 0
-42 -85 0
-42 -82 0
-41 -81 0
-45 -85 0
-44 -82 0
-44 -85 0
-45 -81 0
-41 -82 0
-42 -84 0
-44 -83 0
-44 -84 0
-43 -84 0
-42 -83 0
-43 -81 0
-41 -83 0
-43 -82 0
-42 -81 0
-41 -94 0
-44 -95 0
-45 -92 0
-44 -94 0
-41 -93 0
-42 -94 0
-45 -91 0
-42 -95 0
-44 -91 0
-44 -93 0
-43 -91 0
-45 -93 0
-45 -94 0
-43 -95 0
-41 -91 0
-42 -92 0
-44 -92 0
-45 -118 0
-44 -120 0
-43 -118 0
-44 -116 0
-42 -119 0
-41 -120 0
-41 -119 0
-45 -120 0
-44 -119 0
-43 -117 0
-42 -117 0
-44 -118 0
-41 -118 0
-45 -117 0
-42 -116 0
-41 -117 0
-45 -119 0
-45 -134 0
-45 -133 0
-42 -132 0
-43 -132 0
-43 -131 0
-41 -135 0
-42 -134 0
-42 -133 0
-41 -133 0
-42 -131 0
-45 -135 0
-44 -134 0
-42 -135 0
-45 -132 0
-44 -131 0
-41 -134 0
-44 -133 0
-44 -161 0
-43 -164 0
-41 -162 0
-44 -164 0
-42 -164 0
-42 -163 0
-45 -162 0
-42 -165 0
-43 -161 0
-44 -162 0
-45 -164 0
-42 -161 0
-41 -165 0
-44 -165 0
-43 -165 0
-45 -163 0
-41 -164 0
-41 -174 0
-44 -175 0
-44 -172 0
-41 -173 0
-43 -172 0
-43 -171 0
-45 -172 0
-45 -173 0
-41 -171 0
-42 -175 0
-42 -172 0
-44 -174 0
-43 -175 0
-45 -171 0
-45 -174 0
-42 -171 0
-41 -175 0
-46 -59 0
-46 -57 0
-50 -59 0
-47 -56 0
-47 -60 0
-46 -56 0
-49 -57 0
-50 -56 0
-46 -58 0
-48 -56 0
-50 -57 0
-49 -60 0
-48 -59 0
-47 -58 0
-48 -60 0
-49 -56 0
-48 -58 0
-47 -64 0
-46 -65 0
-48 -61 0
-47 -65 0
-48 -63 0
-50 -63 0
-50 -65 0
-50 -64 0
-46 -62 0
-49 -61 0
-49 -64 0
-50 -62 0
-49 -63 0
-47 -62 0
-50 -61 0
-47 -61 0
-48 -65 0
-48 -70 0
-49 -67 0
-48 -67 0
-47 -66 0
-47 -70 0
-50 -67 0
-49 -70 0
-50 -68 0
-46 -70 0
-49 -68 0
-48 -69 0
-50 -66 0
-48 -66 0
-47 -67 0
-47 -69 0
-47 -68 0
-46 -67 0
-49 -112 0
-47 -113 0
-46 -113 0
-49 -113 0
-50 -111 0
-46 -111 0
-46 -115 0
-50 -115 0
-48 -115 0
-47 -112 0
-49 -111 0
-49 -114 0
-46 -112 0
-50 -113 0
-50 -114 0
-48 -111 0
-48 -113 0
-47 -133 0
-49 -131 0
-49 -132 0
-46 -135 0
-50 -132 0
-47 -135 0
-46 -134 0
-48 -132 0
-50 -133 0
-49 -134 0
-47 -134 0
-50 -131 0
-47 -132 0
-50 -135 0
-50 -134 0
-48 -133 0
-46 -131 0
-47 -148 0
-47 -149 0
-49 -149 0
-50 -149 0
-48 -150 0
-46 -146 0
-50 -148 0
-48 -149 0
-46 -148 0
-46 -147 0
-49 -150 0
-47 -147 0
-47 -146 0
-49 -146 0
-49 -148 0
-48 -148 0
-46 -150 0
-49 -170 0
-46 -168 0
-48 -169 0
-49 -167 0
-50 -166 0
-48 -170 0
-46 -167 0
-46 -166 0
-50 -169 0
-49 -166 0
-47 -168 0
-48 -168 0
-47 -166 0
-48 -166 0
-46 -170 0
-48 -167 0
-49 -168 0
-55 -100 0
-55 -98 0
-53 -100 0
-52 -97 0
-54 -99 0
-52 -100 0
-53 -98 0
-55 -96 0
-52 -99 0
-55 -99 0
-53 -99 0
-51 -99 0
-54 -98 0
-52 -96 0
-51 -96 0
-54 -100 0
-51 -100 0
-54 -103 0
-53 -104 0
-55 -102 0
-53 -105 0
-52 -105 0
-52 -103 0
-53 -103 0
-52 -102 0
-55 -101 0
-54 -102 0
-54 -105 0
-52 -104 0
-52 -101 0
-51 -103 0
-55 -105 0
-54 -101 0
-55 -103 0
-55 -108 0
-53 -110 0
-54 -106 0
-51 -107 0
-52 -107 0
-54 -108 0
-53 -106 0
-53 -108 0
-54 -110 0
-54 -107 0
-52 -106 0
-52 -110 0
-52 -108 0
-55 -110 0
-53 -109 0
-55 -107 0
-51 -110 0
-53 -142 0
-52 -145 0
-53 -145 0
-52 -144 0
-53 -144 0
-54 -143 0
-52 -143 0
-53 -141 0
-54 -141 0
-51 -143 0
-55 -143 0
-51 -141 0
-51 -145 0
-55 -144 0
-54 -142 0
-51 -144 0
-54 -145 0
-52 -149 0
-54 -149 0
-53 -147 0
-52 -150 0
-55 -148 0
-55 -147 0
-52 -146 0
-53 -149 0
-54 -148 0
-51 -149 0
-55 -146 0
-52 -148 0
-54 -147 0
-52 -147 0
-55 -149 0
-54 -146 0
-53 -148 0
-52 -152 0
-54 -151 0
-52 -151 0
-55 -155 0
-53 -153 0
-53 -151 0
-51 -151 0
-54 -154 0
-51 -152 0
-55 -154 0
-55 -152 0
-52 -154 0
-51 -154 0
-54 -153 0
-53 -155 0
-53 -154 0
-53 -152 0
-55 -157 0
-51 -158 0
-53 -156 0
-52 -157 0
-53 -159 0
-51 -159 0
-52 -156 0
-53 -160 0
-52 -160 0
-55 -158 0
-53 -158 0
-54 -160 0
-54 -159 0
-51 -157 0
-54 -156 0
-55 -160 0
-53 -157 0
-53 -164 0
-51 -164 0
-51 -161 0
-55 -164 0
-52 -165 0
-53 -165 0
-53 -161 0
-53 -163 0
-51 -162 0
-52 -164 0
-51 -163 0
-54 -165 0
-55 -162 0
-55 -163 0
-54 -164 0
-54 -161 0
-55 -165 0
-55 -167 0
-51 -170 0
-53 -166 0
-52 -168 0
-53 -167 0
-54 -166 0
-51 -167 0
-54 -170 0
-55 -170 0
-51 -168 0
-51 -169 0
-51 -166 0
-53 -169 0
-52 -167 0
-53 -170 0
-52 -170 0
-55 -168 0
-51 -175 0
-51 -172 0
-55 -173 0
-54 -173 0
-53 -171 0
-54 -171 0
-52 -174 0
-51 -174 0
-54 -172 0
-55 -172 0
-54 -174 0
-55 -175 0
-52 -172 0
-55 -171 0
-52 -173 0
-52 -171 0
-51 -173 0
-57 -73 0
-60 -72 0
-58 -73 0
-58 -71 0
-60 -75 0
-59 -71 0
-56 -75 0
-58 -72 0
-56 -72 0
-59 -75 0
-59 -74 0
-60 -71 0
-58 -75 0
-56 -74 0
-60 -73 0
-57 -72 0
-57 -71 0
-58 -85 0
-60 -83 0
-57 -82 0
-58 -82 0
-57 -83 0
-60 -81 0
-56 -84 0
-58 -81 0
-59 -83 0
-57 -81 0
-58 -84 0
-56 -83 0
-60 -82 0
-59 -81 0
-59 -82 0
-60 -85 0
-56 -81 0
-57 -114 0
-56 -113 0
-56 -111 0
-57 -112 0
-60 -115 0
-57 -113 0
-59 -114 0
-58 -112 0
-58 -113 0
-60 -114 0
-56 -115 0
-57 -115 0
-58 -111 0
-59 -115 0
-60 -113 0
-58 -115 0
-59 -111 0
-57 -141 0
-56 -142 0
-60 -141 0
-57 -145 0
-60 -145 0
-59 -143 0
-58 -142 0
-60 -144 0
-58 -144 0
-56 -145 0
-58 -143 0
-56 -141 0
-57 -143 0
-58 -141 0
-56 -144 0
-57 -142 0
-59 -145 0
-60 -160 0
-59 -158 0
-57 -158 0
-58 -156 0
-58 -159 0
-60 -158 0
-56 -160 0
-59 -157 0
-59 -159 0
-59 -156 0
-56 -157 0
-60 -159 0
-57 -156 0
-60 -156 0
-56 -158 0
-57 -160 0
-58 -158 0
-57 -164 0
-56 -165 0
-58 -164 0
-60 -161 0
-58 -162 0
-57 -161 0
-56 -161 0
-56 -162 0
-56 -163 0
-58 -163 0
-59 -163 0
-57 -165 0
-59 -162 0
-60 -162 0
-58 -165 0
-59 -165 0
-60 -163 0
-59 -173 0
-60 -173 0
-57 -172 0
-56 -175 0
-58 -171 0
-60 -172 0
-57 -171 0
-58 -174 0
-58 -175 0
-56 -172 0
-57 -173 0
-56 -174 0
-60 -174 0
-59 -171 0
-60 -175 0
-60 -171 0
-57 -174 0
-65 -88 0
-65 -86 0
-64 -87 0
-63 -86 0
-63 -87 0
-65 -89 0
-63 -90 0
-62 -89 0
-63 -88 0
-61 -89 0
-62 -87 0
-65 -90 0
-61 -86 0
-61 -87 0
-61 -90 0
-62 -90 0
-65 -87 0
-62 -96 0
-63 -100 0
-64 -98 0
-63 -99 0
-62 -97 0
-65 -98 0
-63 -98 0
-64 -99 0
-65 -100 0
-61 -100 0
-65 -96 0
-61 -98 0
-65 -99 0
-63 -96 0
-65 -97 0
-62 -100 0
-62 -99 0
-61 -105 0
-61 -101 0
-64 -101 0
-65 -105 0
-62 -105 0
-63 -103 0
-65 -103 0
-65 -104 0
-64 -103 0
-63 -102 0
-64 -105 0
-65 -101 0
-61 -104 0
-65 -102 0
-62 -104 0
-61 -102 0
-63 -104 0
-62 -136 0
-64 -140 0
-62 -140 0
-65 -137 0
-63 -137 0
-64 -138 0
-64 -137 0
-64 -136 0
-63 -139 0
-62 -137 0
-65 -136 0
-61 -140 0
-65 -138 0
-64 -139 0
-62 -139 0
-65 -140 0
-61 -136 0
-62 -157 0
-61 -159 0
-63 -158 0
-62 -160 0
-65 -157 0
-65 -156 0
-61 -160 0
-61 -158 0
-62 -158 0
-63 -156 0
-64 -159 0
-63 -160 0
-61 -157 0
-65 -158 0
-65 -160 0
-64 -157 0
-65 -159 0
-67 -82 0
-70 -84 0
-68 -81 0
-67 -84 0
-69 -81 0
-67 -81 0
-69 -83 0
-68 -85 0
-70 -81 0
-66 -84 0
-66 -83 0
-70 -82 0
-66 -85 0
-66 -82 0
-70 -83 0
-68 -84 0
-67 -83 0
-68 -163 0
-67 -162 0
-67 -164 0
-68 -161 0
-68 -165 0
-70 -162 0
-67 -161 0
-70 -164 0
-70 -161 0
-66 -165 0
-69 -165 0
-67 -163 0
-69 -163 0
-66 -162 0
-69 -164 0
-69 -161 0
-70 -165 0
-66 -169 0
-66 -168 0
-67 -170 0
-69 -170 0
-70 -168 0
-68 -170 0
-70 -169 0
-67 -169 0
-67 -168 0
-68 -166 0
-70 -167 0
-68 -167 0
-69 -166 0
-68 -168 0
-69 -167 0
-69 -168 0
-67 -167 0
-69 -173 0
-70 -173 0
-66 -172 0
-67 -174 0
-67 -171 0
-70 -172 0
-70 -174 0
-68 -173 0
-67 -175 0
-70 -175 0
-70 -171 0
-68 -171 0
-68 -174 0
-67 -173 0
-66 -171 0
-69 -172 0
-66 -173 0
-73 -81 0
-75 -83 0
-74 -81 0
-75 -82 0
-72 -81 0
-72 -83 0
-75 -84 0
-71 -85 0
-72 -82 0
-74 -85 0
-71 -83 0
-75 -81 0
-75 -85 0
-71 -81 0
-73 -85 0
-74 -82 0
-73 -84 0
-71 -89 0
-73 -86 0
-73 -89 0
-72 -86 0
-74 -88 0
-71 -87 0
-71 -86 0
-71 -88 0
-74 -87 0
-74 -86 0
-75 -89 0
-74 -90 0
-72 -88 0
-73 -88 0
-73 -87 0
-75 -87 0
-72 -90 0
-72 -115 0
-75 -111 0
-71 -114 0
-73 -115 0
-74 -111 0
-72 -112 0
-72 -114 0
-75 -115 0
-73 -112 0
-74 -114 0
-71 -115 0
-74 -113 0
-72 -111 0
-73 -111 0
-71 -112 0
-74 -112 0
-74 -115 0
-73 -135 0
-73 -131 0
-71 -131 0
-71 -135 0
-75 -134 0
-74 -133 0
-72 -131 0
-74 -134 0
-75 -132 0
-75 -131 0
-72 -132 0
-74 -135 0
-73 -132 0
-71 -132 0
-71 -133 0
-72 -134 0
-75 -135 0
-74 -136 0
-74 -140 0
-71 -137 0
-73 -140 0
-72 -140 0
-72 -139 0
-72 -138 0
-75 -138 0
-75 -137 0
-75 -136 0
-71 -139 0
-74 -137 0
-72 -136 0
-71 -138 0
-73 -137 0
-74 -139 0
-73 -136 0
-74 -152 0
-73 -154 0
-74 -154 0
-73 -153 0
-74 -151 0
-73 -152 0
-75 -155 0
-75 -153 0
-71 -153 0
-72 -152 0
-71 -152 0
-72 -154 0
-73 -151 0
-74 -153 0
-71 -151 0
-72 -151 0
-74 -155 0
-74 -169 0
-75 -169 0
-74 -170 0
-74 -166 0
-71 -169 0
-73 -168 0
-74 -168 0
-71 -166 0
-73 -167 0
-75 -166 0
-72 -169 0
-71 -168 0
-72 -168 0
-72 -170 0
-71 -170 0
-74 -167 0
-73 -170 0
-74 -175 0
-75 -171 0
-73 -171 0
-71 -175 0
-74 -174 0
-75 -174 0
-72 -175 0
-74 -172 0
-71 -171 0
-73 -173 0
-75 -175 0
-72 -171 0
-72 -174 0
-75 -172 0
-73 -172 0
-71 -174 0
-74 -171 0
-78 -82 0
-78 -81 0
-79 -82 0
-80 -85 0
-80 -83 0
-78 -83 0
-77 -83 0
-76 -84 0
-76 -81 0
-76 -82 0
-78 -84 0
-76 -83 0
-76 -85 0
-77 -81 0
-79 -83 0
-80 -82 0
-80 -84 0
-79 -97 0
-77 -99 0
-80 -100 0
-77 -98 0
-76 -100 0
-76 -97 0
-79 -99 0
-78 -96 0
-78 -97 0
-77 -100 0
-79 -96 0
-78 -99 0
-76 -99 0
-78 -100 0
-77 -97 0
-79 -98 0
-77 -96 0
-78 -115 0
-77 -114 0
-78 -113 0
-76 -114 0
-80 -113 0
-79 -113 0
-76 -115 0
-77 -115 0
-80 -114 0
-76 -113 0
-80 -111 0
-78 -112 0
-80 -112 0
-77 -111 0
-79 -112 0
-78 -114 0
-77 -112 0
-77 -120 0
-76 -118 0
-78 -116 0
-78 -119 0
-76 -116 0
-79 -116 0
-80 -117 0
-79 -117 0
-77 -118 0
-80 -116 0
-77 -119 0
-78 -120 0
-78 -118 0
-79 -119 0
-79 -118 0
-80 -120 0
-76 -119 0
-76 -129 0
-78 -126 0
-80 -130 0
-77 -126 0
-78 -129 0
-79 -126 0
-77 -128 0
-77 -129 0
-79 -128 0
-79 -129 0
-78 -128 0
-76 -130 0
-80 -128 0
-76 -127 0
-79 -127 0
-78 -127 0
-79 -130 0
-79 -148 0
-76 -147 0
-80 -148 0
-80 -147 0
-77 -148 0
-76 -148 0
-78 -149 0
-76 -146 0
-80 -149 0
-77 -147 0
-77 -149 0
-78 -147 0
-77 -150 0
-80 -146 0
-80 -150 0
-79 -147 0
-76 -149 0
-80 -153 0
-76 -154 0
-77 -152 0
-80 -151 0
-79 -151 0
-79 -155 0
-78 -152 0
-76 -153 0
-76 -155 0
-79 -154 0
-80 -152 0
-77 -153 0
-77 -155 0
-76 -151 0
-77 -151 0
-79 -152 0
-80 -154 0
-78 -172 0
-80 -174 0
-76 -173 0
-78 -173 0
-79 -172 0
-80 -175 0
-80 -173 0
-78 -175 0
-77 -175 0
-79 -173 0
-77 -174 0
-76 -171 0
-76 -172 0
-77 -173 0
-79 -174 0
-76 -175 0
-80 -172 0
-83 -93 0
-83 -94 0
-85 -95 0
-85 -94 0
-82 -95 0
-85 -92 0
-84 -91 0
-83 -91 0
-84 -92 0
-82 -91 0
-84 -95 0
-81 -91 0
-85 -91 0
-84 -93 0
-81 -94 0
-82 -94 0
-83 -95 0
-83 -98 0
-82 -97 0
-81 -96 0
-81 -98 0
-85 -99 0
-81 -100 0
-84 -96 0
-81 -97 0
-82 -96 0
-83 -100 0
-83 -96 0
-85 -96 0
-82 -100 0
-83 -97 0
-82 -99 0
-84 -97 0
-82 -98 0
-84 -101 0
-82 -101 0
-83 -101 0
-84 -104 0
-85 -104 0
-85 -101 0
-81 -104 0
-83 -104 0
-85 -105 0
-82 -103 0
-83 -103 0
-81 -105 0
-84 -102 0
-83 -102 0
-81 -103 0
-84 -103 0
-81 -102 0
-81 -113 0
-84 -113 0
-84 -114 0
-85 -113 0
-82 -115 0
-83 -111 0
-81 -112 0
-84 -115 0
-83 -115 0
-82 -114 0
-84 -112 0
-85 -112 0
-83 -112 0
-84 -111 0
-82 -112 0
-81 -114 0
-82 -111 0
-85 -133 0
-82 -132 0
-82 -133 0
-83 -134 0
-81 -135 0
-84 -134 0
-85 -131 0
-83 -131 0
-83 -133 0
-84 -131 0
-81 -132 0
-82 -135 0
-85 -134 0
-84 -133 0
-85 -132 0
-81 -134 0
-84 -132 0
-83 -157 0
-84 -160 0
-85 -157 0
-82 -160 0
-85 -158 0
-83 -159 0
-81 -158 0
-84 -159 0
-83 -156 0
-84 -158 0
-82 -156 0
-82 -157 0
-85 -160 0
-81 -157 0
-85 -156 0
-81 -156 0
-81 -159 0
-85 -170 0
-84 -169 0
-84 -170 0
-81 -166 0
-82 -170 0
-82 -166 0
-84 -167 0
-81 -169 0
-83 -168 0
-83 -167 0
-85 -168 0
-85 -166 0
-85 -167 0
-83 -166 0
-84 -166 0
-82 -168 0
-82 -167 0
-85 -174 0
-82 -173 0
-83 -172 0
-85 -171 0
-85 -173 0
-82 -171 0
-84 -173 0
-84 -171 0
-81 -172 0
-81 -174 0
-85 -172 0
-81 -175 0
-82 -174 0
-81 -171 0
-85 -175 0
-84 -174 0
-84 -172 0
-86 -103 0
-90 -103 0
-88 -101 0
-88 -105 0
-89 -103 0
-87 -102 0
-89 -102 0
-88 -104 0
-87 -104 0
-89 -105 0
-90 -104 0
-88 -102 0
-89 -101 0
-89 -104 0
-90 -102 0
-86 -101 0
-86 -105 0
-90 -112 0
-86 -113 0
-88 -113 0
-90 -115 0
-89 -115 0
-88 -115 0
-89 -112 0
-86 -114 0
-87 -111 0
-90 -114 0
-90 -111 0
-86 -111 0
-88 -114 0
-87 -115 0
-88 -111 0
-87 -112 0
-87 -114 0
-88 -132 0
-90 -133 0
-90 -134 0
-88 -133 0
-87 -133 0
-88 -134 0
-87 -131 0
-88 -135 0
-90 -131 0
-86 -133 0
-89 -133 0
-87 -132 0
-86 -134 0
-86 -132 0
-90 -132 0
-89 -134 0
-89 -135 0
-86 -139 0
-86 -140 0
-90 -139 0
-86 -136 0
-90 -140 0
-87 -139 0
-86 -137 0
-87 -140 0
-89 -136 0
-88 -138 0
-86 -138 0
-88 -137 0
-88 -139 0
-90 -137 0
-89 -139 0
-90 -136 0
-87 -137 0
-86 -143 0
-90 -142 0
-88 -144 0
-89 -142 0
-89 -144 0
-89 -143 0
-87 -143 0
-87 -144 0
-86 -145 0
-88 -142 0
-89 -141 0
-86 -144 0
-87 -141 0
-88 -143 0
-90 -145 0
-90 -141 0
-90 -144 0
-87 -173 0
-89 -174 0
-90 -174 0
-89 -175 0
-90 -173 0
-86 -173 0
-86 -172 0
-89 -172 0
-88 -175 0
-90 -172 0
-90 -171 0
-86 -174 0
-88 -173 0
-90 -175 0
-86 -171 0
-89 -171 0
-88 -172 0
-92 -112 0
-91 -111 0
-92 -113 0
-93 -115 0
-95 -111 0
-95 -113 0
-94 -113 0
-93 -112 0
-92 -115 0
-95 -115 0
-91 -112 0
-94 -112 0
-91 -113 0
-95 -112 0
-92 -114 0
-93 -111 0
-91 -114 0
-92 -131 0
-94 -133 0
-91 -134 0
-94 -135 0
-95 -133 0
-93 -131 0
-93 -132 0
-91 -133 0
-95 -131 0
-93 -134 0
-92 -132 0
-93 -135 0
-95 -134 0
-91 -135 0
-94 -132 0
-91 -131 0
-94 -131 0
-91 -166 0
-92 -168 0
-95 -168 0
-92 -167 0
-94 -169 0
-93 -167 0
-93 -166 0
-94 -167 0
-91 -170 0
-91 -168 0
-94 -166 0
-92 -170 0
-94 -168 0
-93 -170 0
-93 -169 0
-92 -166 0
-91 -169 0
-96 -106 0
-99 -110 0
-100 -109 0
-98 -110 0
-97 -108 0
-99 -108 0
-99 -107 0
-98 -108 0
-96 -110 0
-96 -109 0
-100 -110 0
-98 -106 0
-100 -107 0
-97 -107 0
-98 -107 0
-97 -106 0
-97 -109 0
-96 -135 0
-98 -131 0
-100 -135 0
-97 -131 0
-100 -133 0
-97 -135 0
-96 -134 0
-96 -132 0
-99 -132 0
-97 -133 0
-99 -131 0
-98 -132 0
-98 -135 0
-96 -133 0
-96 -131 0
-97 -134 0
-100 -132 0
-103 -107 0
-102 -110 0
-102 -106 0
-104 -106 0
-101 -108 0
-102 -109 0
-105 -108 0
-101 -109 0
-103 -108 0
-104 -107 0
-105 -107 0
-103 -110 0
-104 -109 0
-105 -106 0
-101 -106 0
-103 -109 0
-105 -109 0
-104 -111 0
-104 -114 0
-105 -111 0
-105 -115 0
-101 -113 0
-101 -115 0
-102 -113 0
-103 -111 0
-102 -111 0
-103 -114 0
-102 -112 0
-101 -112 0
-103 -113 0
-105 -114 0
-105 -113 0
-104 -112 0
-101 -114 0
-101 -129 0
-103 -128 0
-103 -129 0
-102 -130 0
-105 -127 0
-105 -128 0
-101 -128 0
-102 -126 0
-101 -130 0
-104 -130 0
-101 -126 0
-104 -127 0
-105 -126 0
-104 -128 0
-102 -129 0
-104 -129 0
-102 -128 0
-105 -140 0
-101 -137 0
-104 -136 0
-101 -136 0
-101 -139 0
-103 -138 0
-104 -137 0
-102 -138 0
-101 -138 0
-105 -138 0
-102 -137 0
-103 -140 0
-103 -136 0
-101 -140 0
-102 -139 0
-104 -138 0
-105 -136 0
-103 -144 0
-101 -141 0
-103 -142 0
-102 -144 0
-104 -143 0
-105 -141 0
-105 -144 0
-104 -145 0
-103 -143 0
-102 -143 0
-105 -143 0
-104 -141 0
-101 -143 0
-105 -142 0
-101 -144 0
-101 -142 0
-103 -141 0
-107 -115 0
-107 -113 0
-109 -114 0
-107 -112 0
-110 -114 0
-106 -114 0
-110 -112 0
-108 -111 0
-109 -111 0
-108 -113 0
-110 -113 0
-106 -115 0
-106 -113 0
-106 -112 0
-110 -111 0
-108 -114 0
-108 -115 0
-109 -124 0
-107 -123 0
-110 -123 0
-109 -123 0
-107 -125 0
-110 -121 0
-106 -121 0
-108 -123 0
-109 -121 0
-108 -122 0
-108 -121 0
-109 -125 0
-107 -122 0
-110 -124 0
-108 -124 0
-107 -121 0
-107 -124 0
-108 -138 0
-110 -136 0
-109 -136 0
-109 -137 0
-110 -139 0
-110 -137 0
-109 -140 0
-107 -137 0
-108 -140 0
-107 -139 0
-108 -137 0
-106 -137 0
-108 -136 0
-108 -139 0
-106 -138 0
-106 -140 0
-110 -138 0
-106 -144 0
-110 -144 0
-106 -141 0
-107 -142 0
-109 -145 0
-109 -141 0
-107 -144 0
-107 -143 0
-106 -142 0
-106 -145 0
-110 -145 0
-110 -141 0
-108 -143 0
-108 -141 0
-108 -142 0
-110 -143 0
-109 -143 0
-106 -163 0
-106 -165 0
-109 -161 0
-106 -161 0
-110 -162 0
-110 -164 0
-110 -165 0
-108 -163 0
-110 -163 0
-109 -165 0
-107 -161 0
-109 -163 0
-108 -162 0
-106 -162 0
-108 -161 0
-109 -164 0
-110 -161 0
-109 -166 0
-109 -170 0
-106 -169 0
-107 -167 0
-106 -168 0
-108 -170 0
-106 -167 0
-107 -170 0
-108 -166 0
-109 -168 0
-107 -168 0
-109 -167 0
-108 -169 0
-110 -168 0
-106 -170 0
-106 -166 0
-109 -169 0
-107 -174 0
-106 -172 0
-110 -174 0
-109 -174 0
-107 -175 0
-107 -173 0
-106 -171 0
-108 -172 0
-108 -171 0
-110 -175 0
-106 -174 0
-109 -175 0
-109 -173 0
-108 -175 0
-108 -174 0
-109 -172 0
-110 -171 0
-111 -119 0
-112 -118 0
-111 -120 0
-115 -120 0
-113 -119 0
-112 -117 0
-111 -116 0
-113 -117 0
-114 -116 0
-114 -117 0
-115 -119 0
-113 -120 0
-111 -117 0
-112 -116 0
-111 -118 0
-112 -120 0
-115 -116 0
-112 -135 0
-111 -132 0
-115 -132 0
-111 -135 0
-115 -135 0
-114 -131 0
-114 -134 0
-111 -133 0
-114 -133 0
-112 -131 0
-115 -131 0
-113 -133 0
-111 -134 0
-114 -135 0
-113 -132 0
-115 -134 0
-112 -134 0
-111 -138 0
-115 -139 0
-112 -138 0
-113 -139 0
-113 -140 0
-113 -137 0
-115 -140 0
-114 -138 0
-114 -140 0
-111 -140 0
-111 -139 0
-115 -137 0
-114 -139 0
-111 -137 0
-114 -137 0
-112 -136 0
-112 -137 0
-111 -152 0
-114 -155 0
-113 -153 0
-112 -155 0
-115 -152 0
-111 -153 0
-113 -154 0
-113 -151 0
-113 -155 0
-115 -154 0
-114 -153 0
-112 -153 0
-113 -152 0
-115 -151 0
-115 -153 0
-111 -154 0
-112 -154 0
-111 -174 0
-112 -172 0
-114 -173 0
-114 -171 0
-113 -172 0
-111 -173 0
-111 -172 0
-115 -172 0
-114 -175 0
-114 -174 0
-113 -175 0
-115 -174 0
-114 -172 0
-111 -175 0
-115 -171 0
-112 -174 0
-112 -171 0
-118 -172 0
-116 -175 0
-120 -172 0
-119 -175 0
-117 -175 0
-117 -174 0
-119 -171 0
-116 -174 0
-116 -173 0
-120 -174 0
-118 -175 0
-119 -172 0
-117 -172 0
-116 -172 0
-118 -171 0
-120 -175 0
-119 -173 0
-122 -132 0
-125 -133 0
-125 -132 0
-123 -135 0
-125 -134 0
-124 -132 0
-124 -135 0
-121 -132 0
-123 -134 0
-124 -131 0
-121 -131 0
-122 -134 0
-125 -131 0
-121 -133 0
-121 -135 0
-123 -132 0
-124 -133 0
-125 -156 0
-122 -157 0
-121 -160 0
-125 -158 0
-122 -156 0
-123 -156 0
-121 -159 0
-125 -159 0
-121 -156 0
-125 -157 0
-125 -160 0
-124 -159 0
-121 -157 0
-122 -160 0
-122 -158 0
-124 -160 0
-122 -159 0
-129 -132 0
-130 -132 0
-126 -132 0
-128 -134 0
-126 -134 0
-130 -135 0
-126 -135 0
-130 -131 0
-128 -133 0
-129 -131 0
-130 -134 0
-129 -135 0
-127 -133 0
-127 -132 0
-129 -134 0
-127 -131 0
-128 -131 0
-129 -146 0
-127 -148 0
-128 -150 0
-127 -149 0
-130 -148 0
-128 -146 0
-130 -149 0
-129 -148 0
-126 -147 0
-128 -147 0
-130 -147 0
-126 -149 0
-129 -150 0
-127 -147 0
-130 -150 0
-126 -150 0
-126 -148 0
-127 -152 0
-128 -153 0
-126 -153 0
-127 -154 0
-126 -152 0
-129 -154 0
-130 -154 0
-126 -155 0
-130 -151 0
-128 -154 0
-129 -152 0
-128 -151 0
-130 -153 0
-129 -151 0
-127 -151 0
-127 -153 0
-130 -152 0
-130 -162 0
-129 -165 0
-130 -165 0
-126 -162 0
-129 -164 0
-128 -164 0
-130 -161 0
-128 -161 0
-128 -163 0
-126 -163 0
-128 -165 0
-129 -161 0
-127 -162 0
-130 -164 0
-129 -163 0
-126 -165 0
-126 -164 0
-133 -162 0
-134 -163 0
-135 -161 0
-133 -164 0
-131 -165 0
-133 -161 0
-135 -162 0
-133 -163 0
-134 -161 0
-134 -165 0
-135 -165 0
-131 -162 0
-135 -163 0
-132 -162 0
-131 -163 0
-134 -162 0
-132 -165 0
-138 -145 0
-138 -141 0
-139 -143 0
-139 -145 0
-140 -143 0
-140 -144 0
-138 -143 0
-137 -144 0
-136 -141 0
-140 -141 0
-139 -141 0
-137 -141 0
-137 -142 0
-136 -145 0
-139 -142 0
-136 -144 0
-136 -143 0
-141 -161 0
-144 -161 0
-145 -163 0
-142 -161 0
-142 -163 0
-144 -163 0
-144 -165 0
-142 -164 0
-145 -164 0
-141 -164 0
-145 -161 0
-144 -162 0
-142 -162 0
-145 -162 0
-143 -163 0
-143 -165 0
-143 -162 0
-149 -157 0
-147 -160 0
-148 -156 0
-150 -160 0
-146 -160 0
-150 -156 0
-149 -160 0
-146 -157 0
-147 -156 0
-150 -158 0
-148 -158 0
-148 -160 0
-147 -158 0
-146 -156 0
-149 -156 0
-149 -159 0
-146 -159 0
-150 -170 0
-148 -169 0
-149 -166 0
-147 -170 0
-146 -167 0
-149 -168 0
-150 -168 0
-147 -166 0
-147 -169 0
-147 -168 0
-150 -166 0
-148 -168 0
-150 -169 0
-146 -166 0
-149 -167 0
-149 -169 0
-149 -170 0
-154 -161 0
-153 -165 0
-155 -164 0
-153 -164 0
-155 -165 0
-153 -162 0
-152 -162 0
-155 -163 0
-154 -165 0
-152 -164 0
-153 -161 0
-154 -162 0
-154 -163 0
-152 -163 0
-151 -162 0
-153 -163 0
-151 -165 0
-163 -175 0
-162 -172 0
-162 -175 0
-163 -172 0
-164 -171 0
-162 -173 0
-161 -172 0
-161 -174 0
-161 -175 0
-163 -173 0
-163 -171 0
-165 -174 0
-161 -173 0
-161 -171 0
-165 -175 0
-164 -173 0
-162 -171 0
